\ Model Ore Mixing Problem
\ LP format - for model browsing. Use MPS format to capture full model detail.
Minimize
  323.4152652005175 a_max_00 + 1298.701298701298 a_max_01
   + 533.3333333333334 a_max_02 + 349.4060097833682 a_max_03
   + 757575.7575757575 a_max_10 + 1.1904761904761905e+06 a_max_11
   + 1.1235955056179776e+06 a_max_12 + 1.639344262295082e+06 a_max_13
   + 454545.4545454546 a_max_20 + 333333.3333333334 a_max_21
   + 243902.4390243902 a_max_22 + 416666.6666666667 a_max_23
   + 238095.2380952381 a_max_30 + 303030.303030303 a_max_31
   + 2e+06 a_max_32 + 526315.7894736842 a_max_33
   + 476190.4761904763 a_max_40 + 113636.3636363636 a_max_41
   + 123456.7901234568 a_max_42 + 156250 a_max_43
   + 384615.3846153849 a_max_50 + 151515.1515151515 a_max_51
   + 97087.37864077672 a_max_52 + 222222.2222222221 a_max_53
   + 710.2272727272729 a_min_00 + 268.0965147453083 a_min_01
   + 380.9523809523809 a_min_02 + 610.5006105006107 a_min_03
   + 5.555555555555556e+06 a_min_10 + 1.5151515151515149e+06 a_min_11
   + 1.639344262295082e+06 a_min_12 + 1.1235955056179776e+06 a_min_13
   + 357142.8571428571 a_min_20 + 500000 a_min_21
   + 1.111111111111111e+06 a_min_22 + 384615.3846153846 a_min_23
   + 1.25e+06 a_min_30 + 588235.2941176471 a_min_31
   + 222222.2222222222 a_min_32 + 322580.6451612903 a_min_33
   + 126582.2784810126 a_min_40 + 833333.3333333334 a_min_41
   + 526315.7894736842 a_min_42 + 277777.7777777778 a_min_43
   + 80645.16129032256 a_min_50 + 119047.6190476191 a_min_51
   + 212765.9574468084 a_min_52 + 95238.09523809525 a_min_53
   + 0.0710227272727273 b_min_00 + 0.1298701298701298 b_min_01
   + 0.0533333333333333 b_min_02 + 0.0610500610500611 b_min_03
   + 5.555555555555555 b_min_10 + 1.515151515151515 b_min_11
   + 1.639344262295082 b_min_12 + 1.639344262295082 b_min_13
   + 4.545454545454546 b_min_20 + 5 b_min_21 + 11.11111111111111 b_min_22
   + 4.166666666666667 b_min_23 + 12.5 b_min_30 + 5.88235294117647 b_min_31
   + 20 b_min_32 + 5.263157894736842 b_min_33 + 4.761904761904763 b_min_40
   + 8.333333333333334 b_min_41 + 5.263157894736842 b_min_42
   + 2.777777777777778 b_min_43 + 3.846153846153849 b_min_50
   + 1.515151515151515 b_min_51 + 2.127659574468084 b_min_52
   + 2.222222222222221 b_min_53 + 0.0710227272727273 b_max_00
   + 0.1298701298701298 b_max_01 + 0.0533333333333333 b_max_02
   + 0.0610500610500611 b_max_03 + 5.555555555555555 b_max_10
   + 1.515151515151515 b_max_11 + 1.639344262295082 b_max_12
   + 1.639344262295082 b_max_13 + 4.545454545454546 b_max_20 + 5 b_max_21
   + 11.11111111111111 b_max_22 + 4.166666666666667 b_max_23
   + 12.5 b_max_30 + 5.88235294117647 b_max_31 + 20 b_max_32
   + 5.263157894736842 b_max_33 + 4.761904761904763 b_max_40
   + 8.333333333333334 b_max_41 + 5.263157894736842 b_max_42
   + 2.777777777777778 b_max_43 + 3.846153846153849 b_max_50
   + 1.515151515151515 b_max_51 + 2.127659574468084 b_max_52
   + 2.222222222222221 b_max_53
Subject To
 input_weight_constr_0: y_00 + y_01 + y_02 + y_03 + y_04 + y_05 + y_06
   + y_07 <= 168.6
 input_weight_constr_1: y_10 + y_11 + y_12 + y_13 + y_14 + y_15 + y_16
   + y_17 <= 168.6
 input_weight_constr_2: y_20 + y_21 + y_22 + y_23 + y_24 + y_25 + y_26
   + y_27 <= 168.6
 capacity_constr_0: y_00 + y_10 + y_20 <= 366.2
 weight_constr_00: x_00 + x_01 + x_02 + x_03 - y_00 <= 1354.4
 weight_constr_01: x_00 + x_01 + x_02 + x_03 - y_10 <= 1354.4
 weight_constr_02: x_00 + x_01 + x_02 + x_03 - y_20 <= 1354.4
 capacity_constr_1: y_01 + y_11 + y_21 <= 131.1
 weight_constr_10: x_10 + x_11 + x_12 + x_13 - y_01 <= 1731.8
 weight_constr_11: x_10 + x_11 + x_12 + x_13 - y_11 <= 1731.8
 weight_constr_12: x_10 + x_11 + x_12 + x_13 - y_21 <= 1731.8
 capacity_constr_2: y_02 + y_12 + y_22 <= 304.5
 weight_constr_20: x_20 + x_21 + x_22 + x_23 - y_02 <= 1687.6
 weight_constr_21: x_20 + x_21 + x_22 + x_23 - y_12 <= 1687.6
 weight_constr_22: x_20 + x_21 + x_22 + x_23 - y_22 <= 1687.6
 capacity_constr_3: y_03 + y_13 + y_23 <= 173.6
 weight_constr_30: x_30 + x_31 + x_32 + x_33 - y_03 <= 1512
 weight_constr_31: x_30 + x_31 + x_32 + x_33 - y_13 <= 1512
 weight_constr_32: x_30 + x_31 + x_32 + x_33 - y_23 <= 1512
 capacity_constr_4: y_04 + y_14 + y_24 <= 202.3
 weight_constr_40: x_40 + x_41 + x_42 + x_43 - y_04 <= 1477.6
 weight_constr_41: x_40 + x_41 + x_42 + x_43 - y_14 <= 1477.6
 weight_constr_42: x_40 + x_41 + x_42 + x_43 - y_24 <= 1477.6
 capacity_constr_5: y_05 + y_15 + y_25 <= 480.8
 weight_constr_50: x_50 + x_51 + x_52 + x_53 - y_05 <= 966.7
 weight_constr_51: x_50 + x_51 + x_52 + x_53 - y_15 <= 966.7
 weight_constr_52: x_50 + x_51 + x_52 + x_53 - y_25 <= 966.7
 capacity_constr_6: y_06 + y_16 + y_26 <= 479.8
 weight_constr_60: x_60 + x_61 + x_62 + x_63 - y_06 <= 1223.2
 weight_constr_61: x_60 + x_61 + x_62 + x_63 - y_16 <= 1223.2
 weight_constr_62: x_60 + x_61 + x_62 + x_63 - y_26 <= 1223.2
 capacity_constr_7: y_07 + y_17 + y_27 <= 20.7
 weight_constr_70: x_70 + x_71 + x_72 + x_73 - y_07 <= 1049.8
 weight_constr_71: x_70 + x_71 + x_72 + x_73 - y_17 <= 1049.8
 weight_constr_72: x_70 + x_71 + x_72 + x_73 - y_27 <= 1049.8
 demand_constr_0: x_00 + x_10 + x_20 + x_30 + x_40 + x_50 + x_60 + x_70
   = 1489.1
 min_quality_constr_00: 37.26 x_00 + 10.89 x_10 - 0.95 x_20 + 12.49 x_30
   + 38.3 x_40 + 15.93 x_50 - 19.55 x_60 + 14.81 x_70 + 1489.1 a_min_00
   >= -0
 max_quality_constr_00: - 7.74 x_00 - 34.11 x_10 - 45.95 x_20 - 32.51 x_30
   - 6.7 x_40 - 29.07 x_50 - 64.55 x_60 - 30.19 x_70 - 1489.1 a_max_00
   <= -0
 goal_quality_constr_00: 23.18 x_00 - 3.19 x_10 - 15.03 x_20 - 1.59 x_30
   + 24.22 x_40 + 1.85 x_50 - 33.63 x_60 + 0.73 x_70 + 1489.1 b_min_00
   - 1489.1 b_max_00 = -0
 min_quality_constr_10: 1.72 x_00 + 0.98 x_10 + 1.13 x_20 + 0.18 x_30
   + 1.27 x_40 + 0.52 x_50 + 1.26 x_60 + 0.57 x_70 + 1489.1 a_min_10 >= -0
 max_quality_constr_10: 0.22 x_00 - 0.52 x_10 - 0.37 x_20 - 1.32 x_30
   - 0.23 x_40 - 0.98 x_50 - 0.24 x_60 - 0.93 x_70 - 1489.1 a_max_10 <= -0
 goal_quality_constr_10: 1.54 x_00 + 0.8 x_10 + 0.95 x_20 + 1.09 x_40
   + 0.34 x_50 + 1.08 x_60 + 0.39 x_70 + 1489.1 b_min_10 - 1489.1 b_max_10
   = -0
 min_quality_constr_20: 4.11 x_00 + 1.92 x_10 + 0.13 x_20 + 2.32 x_30
   + 1.68 x_40 + 6.45 x_50 + 6.91 x_60 + 6.93 x_70 + 1489.1 a_min_20 >= -0
 max_quality_constr_20: 3.61 x_00 + 1.42 x_10 - 0.37 x_20 + 1.82 x_30
   + 1.18 x_40 + 5.95 x_50 + 6.41 x_60 + 6.43 x_70 - 1489.1 a_max_20 <= -0
 goal_quality_constr_20: 3.83 x_00 + 1.64 x_10 - 0.15 x_20 + 2.04 x_30
   + 1.4 x_40 + 6.17 x_50 + 6.63 x_60 + 6.65 x_70 + 1489.1 b_min_20
   - 1489.1 b_max_20 = -0
 min_quality_constr_30: 4.48 x_00 + 3.12 x_10 + 2.9 x_20 + 4.68 x_30
   + 4.46 x_40 + 5.7 x_50 + 4.6 x_60 + 0.71 x_70 + 1489.1 a_min_30 >= -0
 max_quality_constr_30: 3.98 x_00 + 2.62 x_10 + 2.4 x_20 + 4.18 x_30
   + 3.96 x_40 + 5.2 x_50 + 4.1 x_60 + 0.21 x_70 - 1489.1 a_max_30 <= -0
 goal_quality_constr_30: 4.4 x_00 + 3.04 x_10 + 2.82 x_20 + 4.6 x_30
   + 4.38 x_40 + 5.62 x_50 + 4.52 x_60 + 0.63 x_70 + 1489.1 b_min_30
   - 1489.1 b_max_30 = -0
 min_quality_constr_40: 0.41 x_00 + 0.48 x_10 + 0.77 x_20 + 1.1 x_30
   + 1.31 x_40 + 0.04 x_50 + 0.13 x_60 + 0.76 x_70 + 1489.1 a_min_40 >= -0
 max_quality_constr_40: - 0.59 x_00 - 0.52 x_10 - 0.23 x_20 + 0.1 x_30
   + 0.31 x_40 - 0.96 x_50 - 0.87 x_60 - 0.24 x_70 - 1489.1 a_max_40 <= -0
 goal_quality_constr_40: - 0.38 x_00 - 0.31 x_10 - 0.02 x_20 + 0.31 x_30
   + 0.52 x_40 - 0.75 x_50 - 0.66 x_60 - 0.03 x_70 + 1489.1 b_min_40
   - 1489.1 b_max_40 = -0
 min_quality_constr_50: 0.9 x_00 + 0.4 x_10 - 0.34 x_20 + 0.99 x_30
   + 0.21 x_40 + 0.07 x_50 - 0.59 x_60 - 0.37 x_70 + 1489.1 a_min_50 >= -0
 max_quality_constr_50: - 0.6 x_00 - 1.1 x_10 - 1.84 x_20 - 0.51 x_30
   - 1.29 x_40 - 1.43 x_50 - 2.09 x_60 - 1.87 x_70 - 1489.1 a_max_50 <= -0
 goal_quality_constr_50: - 0.34 x_00 - 0.84 x_10 - 1.58 x_20 - 0.25 x_30
   - 1.03 x_40 - 1.17 x_50 - 1.83 x_60 - 1.61 x_70 + 1489.1 b_min_50
   - 1489.1 b_max_50 = -0
 demand_constr_1: x_01 + x_11 + x_21 + x_31 + x_41 + x_51 + x_61 + x_71
   = 1307.2
 min_quality_constr_01: 37.26 x_01 + 10.89 x_11 - 0.95 x_21 + 12.49 x_31
   + 38.3 x_41 + 15.93 x_51 - 19.55 x_61 + 14.81 x_71 + 1307.2 a_min_01
   >= -0
 max_quality_constr_01: - 7.74 x_01 - 34.11 x_11 - 45.95 x_21 - 32.51 x_31
   - 6.7 x_41 - 29.07 x_51 - 64.55 x_61 - 30.19 x_71 - 1307.2 a_max_01
   <= -0
 goal_quality_constr_01: - 0.04 x_01 - 26.41 x_11 - 38.25 x_21 - 24.81 x_31
   + x_41 - 21.37 x_51 - 56.85 x_61 - 22.49 x_71 + 1307.2 b_min_01
   - 1307.2 b_max_01 = -0
 min_quality_constr_11: 1.72 x_01 + 0.98 x_11 + 1.13 x_21 + 0.18 x_31
   + 1.27 x_41 + 0.52 x_51 + 1.26 x_61 + 0.57 x_71 + 1307.2 a_min_11 >= -0
 max_quality_constr_11: 0.22 x_01 - 0.52 x_11 - 0.37 x_21 - 1.32 x_31
   - 0.23 x_41 - 0.98 x_51 - 0.24 x_61 - 0.93 x_71 - 1307.2 a_max_11 <= -0
 goal_quality_constr_11: 1.06 x_01 + 0.32 x_11 + 0.47 x_21 - 0.48 x_31
   + 0.61 x_41 - 0.14 x_51 + 0.6 x_61 - 0.09 x_71 + 1307.2 b_min_11
   - 1307.2 b_max_11 = -0
 min_quality_constr_21: 4.11 x_01 + 1.92 x_11 + 0.13 x_21 + 2.32 x_31
   + 1.68 x_41 + 6.45 x_51 + 6.91 x_61 + 6.93 x_71 + 1307.2 a_min_21 >= -0
 max_quality_constr_21: 3.61 x_01 + 1.42 x_11 - 0.37 x_21 + 1.82 x_31
   + 1.18 x_41 + 5.95 x_51 + 6.41 x_61 + 6.43 x_71 - 1307.2 a_max_21 <= -0
 goal_quality_constr_21: 3.91 x_01 + 1.72 x_11 - 0.07 x_21 + 2.12 x_31
   + 1.48 x_41 + 6.25 x_51 + 6.71 x_61 + 6.73 x_71 + 1307.2 b_min_21
   - 1307.2 b_max_21 = -0
 min_quality_constr_31: 4.48 x_01 + 3.12 x_11 + 2.9 x_21 + 4.68 x_31
   + 4.46 x_41 + 5.7 x_51 + 4.6 x_61 + 0.71 x_71 + 1307.2 a_min_31 >= -0
 max_quality_constr_31: 3.98 x_01 + 2.62 x_11 + 2.4 x_21 + 4.18 x_31
   + 3.96 x_41 + 5.2 x_51 + 4.1 x_61 + 0.21 x_71 - 1307.2 a_max_31 <= -0
 goal_quality_constr_31: 4.31 x_01 + 2.95 x_11 + 2.73 x_21 + 4.51 x_31
   + 4.29 x_41 + 5.53 x_51 + 4.43 x_61 + 0.54 x_71 + 1307.2 b_min_31
   - 1307.2 b_max_31 = -0
 min_quality_constr_41: 0.41 x_01 + 0.48 x_11 + 0.77 x_21 + 1.1 x_31
   + 1.31 x_41 + 0.04 x_51 + 0.13 x_61 + 0.76 x_71 + 1307.2 a_min_41 >= -0
 max_quality_constr_41: - 0.59 x_01 - 0.52 x_11 - 0.23 x_21 + 0.1 x_31
   + 0.31 x_41 - 0.96 x_51 - 0.87 x_61 - 0.24 x_71 - 1307.2 a_max_41 <= -0
 goal_quality_constr_41: 0.29 x_01 + 0.36 x_11 + 0.65 x_21 + 0.98 x_31
   + 1.19 x_41 - 0.08 x_51 + 0.01 x_61 + 0.64 x_71 + 1307.2 b_min_41
   - 1307.2 b_max_41 = -0
 min_quality_constr_51: 0.9 x_01 + 0.4 x_11 - 0.34 x_21 + 0.99 x_31
   + 0.21 x_41 + 0.07 x_51 - 0.59 x_61 - 0.37 x_71 + 1307.2 a_min_51 >= -0
 max_quality_constr_51: - 0.6 x_01 - 1.1 x_11 - 1.84 x_21 - 0.51 x_31
   - 1.29 x_41 - 1.43 x_51 - 2.09 x_61 - 1.87 x_71 - 1307.2 a_max_51 <= -0
 goal_quality_constr_51: 0.06 x_01 - 0.44 x_11 - 1.18 x_21 + 0.15 x_31
   - 0.63 x_41 - 0.77 x_51 - 1.43 x_61 - 1.21 x_71 + 1307.2 b_min_51
   - 1307.2 b_max_51 = -0
 demand_constr_2: x_02 + x_12 + x_22 + x_32 + x_42 + x_52 + x_62 + x_72
   = 1073.8
 min_quality_constr_02: 37.26 x_02 + 10.89 x_12 - 0.95 x_22 + 12.49 x_32
   + 38.3 x_42 + 15.93 x_52 - 19.55 x_62 + 14.81 x_72 + 1073.8 a_min_02
   >= -0
 max_quality_constr_02: - 7.74 x_02 - 34.11 x_12 - 45.95 x_22 - 32.51 x_32
   - 6.7 x_42 - 29.07 x_52 - 64.55 x_62 - 30.19 x_72 - 1073.8 a_max_02
   <= -0
 goal_quality_constr_02: 11.01 x_02 - 15.36 x_12 - 27.2 x_22 - 13.76 x_32
   + 12.05 x_42 - 10.32 x_52 - 45.8 x_62 - 11.44 x_72 + 1073.8 b_min_02
   - 1073.8 b_max_02 = -0
 min_quality_constr_12: 1.72 x_02 + 0.98 x_12 + 1.13 x_22 + 0.18 x_32
   + 1.27 x_42 + 0.52 x_52 + 1.26 x_62 + 0.57 x_72 + 1073.8 a_min_12 >= -0
 max_quality_constr_12: 0.22 x_02 - 0.52 x_12 - 0.37 x_22 - 1.32 x_32
   - 0.23 x_42 - 0.98 x_52 - 0.24 x_62 - 0.93 x_72 - 1073.8 a_max_12 <= -0
 goal_quality_constr_12: 1.11 x_02 + 0.37 x_12 + 0.52 x_22 - 0.43 x_32
   + 0.66 x_42 - 0.09 x_52 + 0.65 x_62 - 0.04 x_72 + 1073.8 b_min_12
   - 1073.8 b_max_12 = -0
 min_quality_constr_22: 4.11 x_02 + 1.92 x_12 + 0.13 x_22 + 2.32 x_32
   + 1.68 x_42 + 6.45 x_52 + 6.91 x_62 + 6.93 x_72 + 1073.8 a_min_22 >= -0
 max_quality_constr_22: 3.61 x_02 + 1.42 x_12 - 0.37 x_22 + 1.82 x_32
   + 1.18 x_42 + 5.95 x_52 + 6.41 x_62 + 6.43 x_72 - 1073.8 a_max_22 <= -0
 goal_quality_constr_22: 4.02 x_02 + 1.83 x_12 + 0.04 x_22 + 2.23 x_32
   + 1.59 x_42 + 6.36 x_52 + 6.82 x_62 + 6.84 x_72 + 1073.8 b_min_22
   - 1073.8 b_max_22 = -0
 min_quality_constr_32: 4.48 x_02 + 3.12 x_12 + 2.9 x_22 + 4.68 x_32
   + 4.46 x_42 + 5.7 x_52 + 4.6 x_62 + 0.71 x_72 + 1073.8 a_min_32 >= -0
 max_quality_constr_32: 3.98 x_02 + 2.62 x_12 + 2.4 x_22 + 4.18 x_32
   + 3.96 x_42 + 5.2 x_52 + 4.1 x_62 + 0.21 x_72 - 1073.8 a_max_32 <= -0
 goal_quality_constr_32: 4.03 x_02 + 2.67 x_12 + 2.45 x_22 + 4.23 x_32
   + 4.01 x_42 + 5.25 x_52 + 4.15 x_62 + 0.26 x_72 + 1073.8 b_min_32
   - 1073.8 b_max_32 = -0
 min_quality_constr_42: 0.41 x_02 + 0.48 x_12 + 0.77 x_22 + 1.1 x_32
   + 1.31 x_42 + 0.04 x_52 + 0.13 x_62 + 0.76 x_72 + 1073.8 a_min_42 >= -0
 max_quality_constr_42: - 0.59 x_02 - 0.52 x_12 - 0.23 x_22 + 0.1 x_32
   + 0.31 x_42 - 0.96 x_52 - 0.87 x_62 - 0.24 x_72 - 1073.8 a_max_42 <= -0
 goal_quality_constr_42: 0.22 x_02 + 0.29 x_12 + 0.58 x_22 + 0.91 x_32
   + 1.12 x_42 - 0.15 x_52 - 0.06 x_62 + 0.57 x_72 + 1073.8 b_min_42
   - 1073.8 b_max_42 = -0
 min_quality_constr_52: 0.9 x_02 + 0.4 x_12 - 0.34 x_22 + 0.99 x_32
   + 0.21 x_42 + 0.07 x_52 - 0.59 x_62 - 0.37 x_72 + 1073.8 a_min_52 >= -0
 max_quality_constr_52: - 0.6 x_02 - 1.1 x_12 - 1.84 x_22 - 0.51 x_32
   - 1.29 x_42 - 1.43 x_52 - 2.09 x_62 - 1.87 x_72 - 1073.8 a_max_52 <= -0
 goal_quality_constr_52: 0.43 x_02 - 0.07 x_12 - 0.81 x_22 + 0.52 x_32
   - 0.26 x_42 - 0.4 x_52 - 1.06 x_62 - 0.84 x_72 + 1073.8 b_min_52
   - 1073.8 b_max_52 = -0
 demand_constr_3: x_03 + x_13 + x_23 + x_33 + x_43 + x_53 + x_63 + x_73
   = 1424.9
 min_quality_constr_03: 37.26 x_03 + 10.89 x_13 - 0.95 x_23 + 12.49 x_33
   + 38.3 x_43 + 15.93 x_53 - 19.55 x_63 + 14.81 x_73 + 1424.9 a_min_03
   >= -0
 max_quality_constr_03: - 7.74 x_03 - 34.11 x_13 - 45.95 x_23 - 32.51 x_33
   - 6.7 x_43 - 29.07 x_53 - 64.55 x_63 - 30.19 x_73 - 1424.9 a_max_03
   <= -0
 goal_quality_constr_03: 20.88 x_03 - 5.49 x_13 - 17.33 x_23 - 3.89 x_33
   + 21.92 x_43 - 0.45 x_53 - 35.93 x_63 - 1.57 x_73 + 1424.9 b_min_03
   - 1424.9 b_max_03 = -0
 min_quality_constr_13: 1.72 x_03 + 0.98 x_13 + 1.13 x_23 + 0.18 x_33
   + 1.27 x_43 + 0.52 x_53 + 1.26 x_63 + 0.57 x_73 + 1424.9 a_min_13 >= -0
 max_quality_constr_13: 0.22 x_03 - 0.52 x_13 - 0.37 x_23 - 1.32 x_33
   - 0.23 x_43 - 0.98 x_53 - 0.24 x_63 - 0.93 x_73 - 1424.9 a_max_13 <= -0
 goal_quality_constr_13: 0.83 x_03 + 0.09 x_13 + 0.24 x_23 - 0.71 x_33
   + 0.38 x_43 - 0.37 x_53 + 0.37 x_63 - 0.32 x_73 + 1424.9 b_min_13
   - 1424.9 b_max_13 = -0
 min_quality_constr_23: 4.11 x_03 + 1.92 x_13 + 0.13 x_23 + 2.32 x_33
   + 1.68 x_43 + 6.45 x_53 + 6.91 x_63 + 6.93 x_73 + 1424.9 a_min_23 >= -0
 max_quality_constr_23: 3.61 x_03 + 1.42 x_13 - 0.37 x_23 + 1.82 x_33
   + 1.18 x_43 + 5.95 x_53 + 6.41 x_63 + 6.43 x_73 - 1424.9 a_max_23 <= -0
 goal_quality_constr_23: 3.85 x_03 + 1.66 x_13 - 0.13 x_23 + 2.06 x_33
   + 1.42 x_43 + 6.19 x_53 + 6.65 x_63 + 6.67 x_73 + 1424.9 b_min_23
   - 1424.9 b_max_23 = -0
 min_quality_constr_33: 4.48 x_03 + 3.12 x_13 + 2.9 x_23 + 4.68 x_33
   + 4.46 x_43 + 5.7 x_53 + 4.6 x_63 + 0.71 x_73 + 1424.9 a_min_33 >= -0
 max_quality_constr_33: 3.98 x_03 + 2.62 x_13 + 2.4 x_23 + 4.18 x_33
   + 3.96 x_43 + 5.2 x_53 + 4.1 x_63 + 0.21 x_73 - 1424.9 a_max_33 <= -0
 goal_quality_constr_33: 4.17 x_03 + 2.81 x_13 + 2.59 x_23 + 4.37 x_33
   + 4.15 x_43 + 5.39 x_53 + 4.29 x_63 + 0.4 x_73 + 1424.9 b_min_33
   - 1424.9 b_max_33 = -0
 min_quality_constr_43: 0.41 x_03 + 0.48 x_13 + 0.77 x_23 + 1.1 x_33
   + 1.31 x_43 + 0.04 x_53 + 0.13 x_63 + 0.76 x_73 + 1424.9 a_min_43 >= -0
 max_quality_constr_43: - 0.59 x_03 - 0.52 x_13 - 0.23 x_23 + 0.1 x_33
   + 0.31 x_43 - 0.96 x_53 - 0.87 x_63 - 0.24 x_73 - 1424.9 a_max_43 <= -0
 goal_quality_constr_43: 0.05 x_03 + 0.12 x_13 + 0.41 x_23 + 0.74 x_33
   + 0.95 x_43 - 0.32 x_53 - 0.23 x_63 + 0.4 x_73 + 1424.9 b_min_43
   - 1424.9 b_max_43 = -0
 min_quality_constr_53: 0.9 x_03 + 0.4 x_13 - 0.34 x_23 + 0.99 x_33
   + 0.21 x_43 + 0.07 x_53 - 0.59 x_63 - 0.37 x_73 + 1424.9 a_min_53 >= -0
 max_quality_constr_53: - 0.6 x_03 - 1.1 x_13 - 1.84 x_23 - 0.51 x_33
   - 1.29 x_43 - 1.43 x_53 - 2.09 x_63 - 1.87 x_73 - 1424.9 a_max_53 <= -0
 goal_quality_constr_53: - 0.15 x_03 - 0.65 x_13 - 1.39 x_23 - 0.06 x_33
   - 0.84 x_43 - 0.98 x_53 - 1.64 x_63 - 1.42 x_73 + 1424.9 b_min_53
   - 1424.9 b_max_53 = -0
Bounds
End
